; ./prepared/aeval/./multi-phase/s_split_41_000.smt2
(set-logic HORN)


(declare-fun |fail| ( ) Bool)
(declare-fun |inv| ( Int Int ) Bool)

(assert
  (forall ( (A Int) (B Int) ) 
    (=>
      (and
        (and (= B 7500) (= A 0))
      )
      (inv A B)
    )
  )
)
(assert
  (forall ( (A Int) (B Int) (C Int) (D Int) ) 
    (=>
      (and
        (inv A B)
        (let ((a!1 (= C (ite (= 0 (mod A 2)) (+ 2 A) (+ 1 A)))))
  (and (= D (ite (>= A 5000) (+ 1 B) B)) a!1))
      )
      (inv C D)
    )
  )
)
(assert
  (forall ( (A Int) (B Int) ) 
    (=>
      (and
        (inv A B)
        (and (not (= B 10000)) (= A 10000))
      )
      fail
    )
  )
)
(assert
  (forall ( (CHC_COMP_UNUSED Bool) ) 
    (=>
      (and
        fail
        true
      )
      false
    )
  )
)

(check-sat)
(exit)
